solution status: time limit reached
objective value:                          34201.72941
y#9                                                 1 	(obj:5700)
y#15                                                1 	(obj:5700)
y#20                                                1 	(obj:5700)
y#22                                                1 	(obj:5700)
y#23                                                1 	(obj:5700)
y#29                                                1 	(obj:5700)
x#1#15                                              1 	(obj:0.03587)
x#2#23                                              1 	(obj:0.04284)
x#3#15                                              1 	(obj:0.03349)
x#4#29                                              1 	(obj:0.04539)
x#5#9                                               1 	(obj:0.01649)
x#6#22                                              1 	(obj:0.02499)
x#7#20                                              1 	(obj:0.05253)
x#8#22                                              1 	(obj:0.02771)
x#9#29                                              1 	(obj:0.02652)
x#10#15                                             1 	(obj:0.01649)
x#11#20                                             1 	(obj:0.00646)
x#12#20                                             1 	(obj:0.02346)
x#13#9                                              1 	(obj:0.02856)
x#14#22                                             1 	(obj:0.01581)
x#15#9                                              1 	(obj:0.0425)
x#16#9                                              1 	(obj:0.04658)
x#17#23                                             1 	(obj:0.05117)
x#18#9                                              1 	(obj:0.01564)
x#19#23                                             1 	(obj:0.00867)
x#20#23                                             1 	(obj:0.00476)
x#21#29                                             1 	(obj:0.02941)
x#22#20                                             1 	(obj:0.00527)
x#23#20                                             1 	(obj:0.0442)
x#24#15                                             1 	(obj:0.01428)
x#25#23                                             1 	(obj:0.03604)
x#26#15                                             1 	(obj:0.03859)
x#27#20                                             1 	(obj:0.01802)
x#28#15                                             1 	(obj:0.04199)
x#29#15                                             1 	(obj:0.0238)
x#30#22                                             1 	(obj:0.01683)
x#31#20                                             1 	(obj:0.04811)
x#32#20                                             1 	(obj:0.01938)
x#33#15                                             1 	(obj:0.05049)
x#34#23                                             1 	(obj:0.04896)
x#35#23                                             1 	(obj:0.02414)
x#36#15                                             1 	(obj:0.01241)
x#37#29                                             1 	(obj:0.00731)
x#38#29                                             1 	(obj:0.0272)
x#39#15                                             1 	(obj:0.0085)
x#40#9                                              1 	(obj:0.06664)
x#41#20                                             1 	(obj:0.0102)
x#42#9                                              1 	(obj:0.03298)
x#43#29                                             1 	(obj:0.01088)
x#44#15                                             1 	(obj:0.04097)
x#45#9                                              1 	(obj:0.03536)
x#46#15                                             1 	(obj:0.01394)
x#47#9                                              1 	(obj:0.06613)
x#48#22                                             1 	(obj:0.00901)
x#49#23                                             1 	(obj:0.03111)
x#50#20                                             1 	(obj:0.05134)
x#51#9                                              1 	(obj:0.03468)
x#52#29                                             1 	(obj:0.03689)
x#53#20                                             1 	(obj:0.01785)
x#54#29                                             1 	(obj:0.03502)
x#55#20                                             1 	(obj:0.01394)
x#56#9                                              1 	(obj:0.02414)
x#57#22                                             1 	(obj:0.02975)
x#58#29                                             1 	(obj:0.03655)
x#59#23                                             1 	(obj:0.02618)
x#60#22                                             1 	(obj:0.02499)
